(declare-fun var0 () String)
(assert (RegexIn var0 (RegexConcat (RegexStar (RegexPlus (Str2Reg "11"))) (RegexConcat (RegexPlus (RegexPlus (Str2Reg "0"))) (RegexConcat (RegexStar (RegexStar (Str2Reg "~~"))) (RegexConcat (RegexUnion (RegexStar (Str2Reg "||")) (RegexStar (Str2Reg "}"))) (RegexConcat (RegexStar (RegexPlus (Str2Reg "{{"))) (RegexConcat (RegexStar (RegexUnion (Str2Reg "___") (Str2Reg "`"))) (RegexConcat (RegexPlus (RegexUnion (Str2Reg "]]") (Str2Reg "^^^"))) (RegexConcat (RegexStar (RegexPlus (Str2Reg "\\\\"))) (RegexConcat (RegexUnion (RegexUnion (Str2Reg "?") (Str2Reg "@@@")) (RegexStar (Str2Reg "[[["))) (RegexConcat (RegexUnion (RegexUnion (Str2Reg ";;") (Str2Reg "<<<")) (RegexUnion (Str2Reg "=") (Str2Reg ">>"))) (RegexConcat (RegexPlus (RegexUnion (Str2Reg "///") (Str2Reg ":::"))) (RegexConcat (RegexPlus (RegexStar (Str2Reg "."))) (RegexConcat (RegexStar (RegexStar (Str2Reg "---"))) (RegexConcat (RegexPlus (RegexPlus (Str2Reg ","))) (RegexConcat (RegexUnion (RegexPlus (Str2Reg ")")) (RegexUnion (Str2Reg "*") (Str2Reg "+"))) (RegexConcat (RegexPlus (RegexStar (Str2Reg "((("))) (RegexConcat (RegexStar (RegexUnion (Str2Reg "&") (Str2Reg "'''"))) (RegexConcat (RegexStar (RegexStar (Str2Reg "%%"))) (RegexConcat (RegexUnion (RegexUnion (Str2Reg "!") (Str2Reg "\"\"\"")) (RegexUnion (Str2Reg "#") (Str2Reg "$$$"))) (RegexConcat (RegexPlus (RegexUnion (Str2Reg "YYY") (Str2Reg "ZZ"))) (RegexConcat (RegexStar (RegexUnion (Str2Reg "W") (Str2Reg "X"))) (RegexConcat (RegexPlus (RegexStar (Str2Reg "VVV"))) (RegexConcat (RegexPlus (RegexUnion (Str2Reg "TTT") (Str2Reg "U"))) (RegexConcat (RegexStar (RegexUnion (Str2Reg "RR") (Str2Reg "SS"))) (RegexConcat (RegexStar (RegexUnion (Str2Reg "P") (Str2Reg "Q"))) (RegexConcat (RegexUnion (RegexPlus (Str2Reg "N")) (RegexStar (Str2Reg "OO"))) (RegexConcat (RegexPlus (RegexPlus (Str2Reg "MM"))) (RegexConcat (RegexUnion (RegexUnion (Str2Reg "J") (Str2Reg "KKK")) (RegexStar (Str2Reg "LLL"))) (RegexConcat (RegexUnion (RegexPlus (Str2Reg "HH")) (RegexPlus (Str2Reg "I"))) (RegexConcat (RegexUnion (RegexUnion (Str2Reg "D") (Str2Reg "E")) (RegexUnion (Str2Reg "FFF") (Str2Reg "G"))) (RegexConcat (RegexUnion (RegexPlus (Str2Reg "BBB")) (RegexPlus (Str2Reg "C"))) (RegexConcat (RegexStar (RegexStar (Str2Reg "AAA"))) (RegexConcat (RegexPlus (RegexPlus (Str2Reg "z"))) (RegexConcat (RegexPlus (RegexStar (Str2Reg "y"))) (RegexConcat (RegexStar (RegexStar (Str2Reg "xxx"))) (RegexConcat (RegexPlus (RegexPlus (Str2Reg "www"))) (RegexConcat (RegexUnion (RegexUnion (Str2Reg "tt") (Str2Reg "uuu")) (RegexPlus (Str2Reg "v"))) (RegexConcat (RegexPlus (RegexPlus (Str2Reg "s"))) (RegexConcat (RegexStar (RegexPlus (Str2Reg "rrr"))) (RegexConcat (RegexPlus (RegexStar (Str2Reg "q"))) (RegexConcat (RegexStar (RegexUnion (Str2Reg "o") (Str2Reg "pp"))) (RegexConcat (RegexUnion (RegexPlus (Str2Reg "m")) (RegexPlus (Str2Reg "nn"))) (RegexConcat (RegexPlus (RegexUnion (Str2Reg "k") (Str2Reg "lll"))) (RegexConcat (RegexUnion (RegexStar (Str2Reg "h")) (RegexUnion (Str2Reg "ii") (Str2Reg "jj"))) (RegexConcat (RegexPlus (RegexStar (Str2Reg "g"))) (RegexConcat (RegexPlus (RegexPlus (Str2Reg "fff"))) (RegexConcat (RegexStar (RegexStar (Str2Reg "eee"))) (RegexConcat (RegexPlus (RegexStar (Str2Reg "ddd"))) (RegexConcat (RegexPlus (RegexPlus (Str2Reg "ccc"))) (RegexConcat (RegexUnion (RegexPlus (Str2Reg "9")) (RegexUnion (Str2Reg "aa") (Str2Reg "b"))) (RegexConcat (RegexUnion (RegexUnion (Str2Reg "66") (Str2Reg "777")) (RegexStar (Str2Reg "88"))) (RegexConcat (RegexPlus (RegexStar (Str2Reg "5"))) (RegexConcat (RegexStar (RegexPlus (Str2Reg "4"))) (RegexConcat (RegexPlus (RegexStar (Str2Reg "33"))) (RegexConcat (RegexUnion (RegexStar (Str2Reg "1")) (RegexStar (Str2Reg "22"))) (RegexConcat (RegexUnion (RegexPlus (Str2Reg "~~~")) (RegexStar (Str2Reg "0"))) (RegexConcat (RegexUnion (RegexUnion (Str2Reg "{{") (Str2Reg "|")) (RegexPlus (Str2Reg "}}"))) (RegexConcat (RegexUnion (RegexStar (Str2Reg "___")) (RegexPlus (Str2Reg "`"))) (RegexConcat (RegexStar (RegexStar (Str2Reg "^"))) (RegexConcat (RegexStar (RegexStar (Str2Reg "]]"))) (RegexConcat (RegexPlus (RegexStar (Str2Reg "\\\\\\"))) (RegexConcat (RegexUnion (RegexUnion (Str2Reg "??") (Str2Reg "@")) (RegexPlus (Str2Reg "[["))) (RegexConcat (RegexStar (RegexUnion (Str2Reg "==") (Str2Reg ">"))) (RegexConcat (RegexPlus (RegexUnion (Str2Reg ";;;") (Str2Reg "<<<"))) (RegexConcat (RegexPlus (RegexUnion (Str2Reg "///") (Str2Reg ":::"))) (RegexConcat (RegexStar (RegexUnion (Str2Reg "---") (Str2Reg "."))) (RegexConcat (RegexPlus (RegexStar (Str2Reg ",,,"))) (RegexConcat (RegexStar (RegexPlus (Str2Reg "+++"))) (RegexConcat (RegexStar (RegexPlus (Str2Reg "***"))) (RegexConcat (RegexStar (RegexUnion (Str2Reg "(((") (Str2Reg ")))"))) (RegexConcat (RegexPlus (RegexPlus (Str2Reg "'"))) (RegexConcat (RegexPlus (RegexPlus (Str2Reg "&&"))) (RegexConcat (RegexPlus (RegexUnion (Str2Reg "$$") (Str2Reg "%%"))) (RegexConcat (RegexUnion (RegexStar (Str2Reg "\"\"\"")) (RegexStar (Str2Reg "###"))) (RegexConcat (RegexStar (RegexUnion (Str2Reg "Z") (Str2Reg "!!"))) (RegexConcat (RegexStar (RegexUnion (Str2Reg "XX") (Str2Reg "Y"))) (RegexConcat (RegexPlus (RegexPlus (Str2Reg "WWW"))) (RegexConcat (RegexPlus (RegexUnion (Str2Reg "U") (Str2Reg "VV"))) (RegexConcat (RegexStar (RegexStar (Str2Reg "T"))) (RegexConcat (RegexStar (RegexStar (Str2Reg "S"))) (RegexConcat (RegexStar (RegexPlus (Str2Reg "RR"))) (RegexConcat (RegexStar (RegexStar (Str2Reg "Q"))) (RegexConcat (RegexUnion (RegexStar (Str2Reg "O")) (RegexStar (Str2Reg "P"))) (RegexConcat (RegexPlus (RegexUnion (Str2Reg "MMM") (Str2Reg "NNN"))) (RegexConcat (RegexUnion (RegexUnion (Str2Reg "JJ") (Str2Reg "KK")) (RegexStar (Str2Reg "LLL"))) (RegexConcat (RegexStar (RegexUnion (Str2Reg "HH") (Str2Reg "II"))) (RegexConcat (RegexStar (RegexPlus (Str2Reg "GGG"))) (RegexConcat (RegexStar (RegexUnion (Str2Reg "EE") (Str2Reg "FFF"))) (RegexConcat (RegexStar (RegexPlus (Str2Reg "DDD"))) (RegexConcat (RegexStar (RegexUnion (Str2Reg "B") (Str2Reg "CC"))) (RegexConcat (RegexPlus (RegexUnion (Str2Reg "z") (Str2Reg "AA"))) (RegexConcat (RegexStar (RegexPlus (Str2Reg "yy"))) (RegexConcat (RegexStar (RegexUnion (Str2Reg "w") (Str2Reg "x"))) (RegexConcat (RegexPlus (RegexPlus (Str2Reg "v"))) (RegexConcat (RegexStar (RegexUnion (Str2Reg "t") (Str2Reg "uu"))) (RegexConcat (RegexStar (RegexStar (Str2Reg "sss"))) (RegexConcat (RegexUnion (RegexPlus (Str2Reg "pp")) (RegexUnion (Str2Reg "q") (Str2Reg "r"))) (RegexConcat (RegexStar (RegexUnion (Str2Reg "nn") (Str2Reg "oo"))) (RegexConcat (RegexStar (RegexUnion (Str2Reg "ll") (Str2Reg "mm"))) (RegexConcat (RegexStar (RegexStar (Str2Reg "kk"))) (RegexConcat (RegexUnion (RegexPlus (Str2Reg "hhh")) (RegexUnion (Str2Reg "i") (Str2Reg "jjj"))) (RegexConcat (RegexStar (RegexPlus (Str2Reg "ggg"))) (RegexConcat (RegexStar (RegexUnion (Str2Reg "e") (Str2Reg "fff"))) (RegexConcat (RegexStar (RegexStar (Str2Reg "d"))) (RegexConcat (RegexPlus (RegexUnion (Str2Reg "bb") (Str2Reg "cc"))) (RegexConcat (RegexPlus (RegexUnion (Str2Reg "99") (Str2Reg "a"))) (RegexConcat (RegexUnion (RegexStar (Str2Reg "66")) (RegexUnion (Str2Reg "777") (Str2Reg "8"))) (RegexConcat (RegexUnion (RegexStar (Str2Reg "333")) (RegexUnion (Str2Reg "4") (Str2Reg "55"))) (RegexConcat (RegexUnion (RegexPlus (Str2Reg "11")) (RegexPlus (Str2Reg "222"))) (RegexConcat (RegexPlus (RegexPlus (Str2Reg "00"))) (RegexConcat (RegexUnion (RegexPlus (Str2Reg "|||")) (RegexUnion (Str2Reg "}}") (Str2Reg "~"))) (RegexConcat (RegexStar (RegexStar (Str2Reg "{{"))) (RegexConcat (RegexStar (RegexUnion (Str2Reg "_") (Str2Reg "``"))) (RegexConcat (RegexStar (RegexPlus (Str2Reg "^^^"))) (RegexConcat (RegexPlus (RegexUnion (Str2Reg "\\\\\\") (Str2Reg "]]]"))) (RegexConcat (RegexUnion (RegexPlus (Str2Reg "@")) (RegexStar (Str2Reg "[[["))) (RegexConcat (RegexStar (RegexStar (Str2Reg "???"))) (RegexConcat (RegexUnion (RegexPlus (Str2Reg "===")) (RegexStar (Str2Reg ">"))) (RegexConcat (RegexUnion (RegexStar (Str2Reg "::")) (RegexUnion (Str2Reg ";;") (Str2Reg "<<"))) (RegexConcat (RegexPlus (RegexStar (Str2Reg "//"))) (RegexConcat (RegexPlus (RegexUnion (Str2Reg "---") (Str2Reg ".."))) (RegexConcat (RegexPlus (RegexStar (Str2Reg ","))) (RegexConcat (RegexPlus (RegexUnion (Str2Reg "**") (Str2Reg "++"))) (RegexConcat (RegexStar (RegexPlus (Str2Reg "))"))) (RegexConcat (RegexUnion (RegexStar (Str2Reg "'''")) (RegexStar (Str2Reg "(("))) (RegexConcat (RegexStar (RegexPlus (Str2Reg "&&&"))) (RegexConcat (RegexStar (RegexStar (Str2Reg "%%"))) (RegexConcat (RegexUnion (RegexUnion (Str2Reg "\"\"\"") (Str2Reg "##")) (RegexStar (Str2Reg "$$"))) (RegexConcat (RegexStar (RegexUnion (Str2Reg "ZZ") (Str2Reg "!!!"))) (RegexConcat (RegexPlus (RegexUnion (Str2Reg "XX") (Str2Reg "YYY"))) (RegexConcat (RegexPlus (RegexStar (Str2Reg "WWW"))) (RegexConcat (RegexUnion (RegexPlus (Str2Reg "TTT")) (RegexUnion (Str2Reg "UU") (Str2Reg "VVV"))) (RegexConcat (RegexStar (RegexUnion (Str2Reg "R") (Str2Reg "S"))) (RegexConcat (RegexPlus (RegexUnion (Str2Reg "P") (Str2Reg "Q"))) (RegexConcat (RegexPlus (RegexStar (Str2Reg "O"))) (RegexConcat (RegexPlus (RegexStar (Str2Reg "N"))) (RegexConcat (RegexUnion (RegexUnion (Str2Reg "KKK") (Str2Reg "LLL")) (RegexPlus (Str2Reg "MM"))) (RegexConcat (RegexUnion (RegexPlus (Str2Reg "III")) (RegexStar (Str2Reg "JJJ"))) (RegexConcat (RegexStar (RegexUnion (Str2Reg "GGG") (Str2Reg "H"))) (RegexConcat (RegexUnion (RegexStar (Str2Reg "E")) (RegexPlus (Str2Reg "F"))) (RegexConcat (RegexStar (RegexStar (Str2Reg "DDD"))) (RegexConcat (RegexStar (RegexUnion (Str2Reg "BBB") (Str2Reg "CC"))) (RegexConcat (RegexUnion (RegexPlus (Str2Reg "zz")) (RegexStar (Str2Reg "A"))) (RegexConcat (RegexUnion (RegexPlus (Str2Reg "w")) (RegexUnion (Str2Reg "xxx") (Str2Reg "yy"))) (RegexConcat (RegexStar (RegexUnion (Str2Reg "uu") (Str2Reg "vvv"))) (RegexConcat (RegexUnion (RegexPlus (Str2Reg "r")) (RegexUnion (Str2Reg "s") (Str2Reg "t"))) (RegexConcat (RegexPlus (RegexUnion (Str2Reg "p") (Str2Reg "q"))) (RegexConcat (RegexPlus (RegexPlus (Str2Reg "oo"))) (RegexConcat (RegexUnion (RegexStar (Str2Reg "mmm")) (RegexStar (Str2Reg "nnn"))) (RegexConcat (RegexPlus (RegexUnion (Str2Reg "k") (Str2Reg "l"))) (RegexConcat (RegexUnion (RegexStar (Str2Reg "ii")) (RegexStar (Str2Reg "jj"))) (RegexConcat (RegexStar (RegexStar (Str2Reg "hhh"))) (RegexConcat (RegexPlus (RegexPlus (Str2Reg "gg"))) (RegexConcat (RegexUnion (RegexUnion (Str2Reg "c") (Str2Reg "dd")) (RegexUnion (Str2Reg "ee") (Str2Reg "f"))) (RegexConcat (RegexPlus (RegexPlus (Str2Reg "bb"))) (RegexConcat (RegexStar (RegexUnion (Str2Reg "9") (Str2Reg "a"))) (RegexConcat (RegexUnion (RegexStar (Str2Reg "777")) (RegexStar (Str2Reg "888"))) (RegexConcat (RegexPlus (RegexStar (Str2Reg "6"))) (RegexConcat (RegexStar (RegexPlus (Str2Reg "55"))) (RegexConcat (RegexUnion (RegexUnion (Str2Reg "22") (Str2Reg "33")) (RegexStar (Str2Reg "44"))) (RegexConcat (RegexStar (RegexPlus (Str2Reg "1"))) (RegexStar (RegexPlus (Str2Reg "000"))))))))))))))))))))))))))))))))))))))))))))))))))))))))))))))))))))))))))))))))))))))))))))))))))))))))))))))))))))))))))))))))))))))))))))))))))))))))))))))))))))))
(check-sat)